certificates/rado_a5_c108_N22.cnf
c Rad2 upper bound instance: x1 + 5*x2 - x3 = 108, interval [1,22]
p cnf 22 130
1 3 22 0
-1 -3 -22 0
2 4 22 0
-2 -4 -22 0
3 5 22 0
-3 -5 -22 0
1 4 21 0
-1 -4 -21 0
4 6 22 0
-4 -6 -22 0
2 5 21 0
-2 -5 -21 0
5 7 22 0
-5 -7 -22 0
3 6 21 0
-3 -6 -21 0
6 8 22 0
-6 -8 -22 0
4 7 21 0
-4 -7 -21 0
7 9 22 0
-7 -9 -22 0
5 8 21 0
-5 -8 -21 0
8 10 22 0
-8 -10 -22 0
1 9 20 0
-1 -9 -20 0
6 9 21 0
-6 -9 -21 0
9 11 22 0
-9 -11 -22 0
2 10 20 0
-2 -10 -20 0
7 10 21 0
-7 -10 -21 0
10 12 22 0
-10 -12 -22 0
3 11 20 0
-3 -11 -20 0
8 11 21 0
-8 -11 -21 0
11 13 22 0
-11 -13 -22 0
4 12 20 0
-4 -12 -20 0
9 12 21 0
-9 -12 -21 0
12 14 22 0
-12 -14 -22 0
5 13 20 0
-5 -13 -20 0
10 13 21 0
-10 -13 -21 0
13 15 22 0
-13 -15 -22 0
1 14 19 0
-1 -14 -19 0
6 14 20 0
-6 -14 -20 0
11 14 21 0
-11 -14 -21 0
14 16 22 0
-14 -16 -22 0
2 15 19 0
-2 -15 -19 0
7 15 20 0
-7 -15 -20 0
12 15 21 0
-12 -15 -21 0
15 17 22 0
-15 -17 -22 0
3 16 19 0
-3 -16 -19 0
8 16 20 0
-8 -16 -20 0
13 16 21 0
-13 -16 -21 0
16 18 22 0
-16 -18 -22 0
4 17 19 0
-4 -17 -19 0
9 17 20 0
-9 -17 -20 0
14 17 21 0
-14 -17 -21 0
17 19 22 0
-17 -19 -22 0
5 18 19 0
-5 -18 -19 0
10 18 20 0
-10 -18 -20 0
15 18 21 0
-15 -18 -21 0
18 20 22 0
-18 -20 -22 0
1 18 19 0
-1 -18 -19 0
6 19 0
-6 -19 0
11 19 20 0
-11 -19 -20 0
16 19 21 0
-16 -19 -21 0
19 21 22 0
-19 -21 -22 0
2 18 20 0
-2 -18 -20 0
7 19 20 0
-7 -19 -20 0
12 20 0
-12 -20 0
17 20 21 0
-17 -20 -21 0
20 22 0
-20 -22 0
3 18 21 0
-3 -18 -21 0
8 19 21 0
-8 -19 -21 0
13 20 21 0
-13 -20 -21 0
18 21 0
-18 -21 0
4 18 22 0
-4 -18 -22 0
9 19 22 0
-9 -19 -22 0
14 20 22 0
-14 -20 -22 0
