certificates/rado_a5_c108_N22.drat
-22 0
20 0
-12 0
10 0
14 0
-2 0
-18 0
-6 0
4 0
16 0
21 0
8 0
19 0
-7 0
-17 0
0
